\ENCODING=ISO-8859-1
\Problem name: ARC_Model

Minimize
 obj: 1000 X_01,01_01 + 1000 X_01,01_02 + 1000 X_01,01_03 + 1000 X_01,01_04
      + X_01,02_01 + X_01,02_02 + X_01,02_03 + X_01,02_04 + X_01,03_01
      + X_01,03_02 + X_01,03_03 + X_01,03_04 + 1000 X_01,04_01
      + 1000 X_01,04_02 + 1000 X_01,04_03 + 1000 X_01,04_04 + 1000 X_01,05_01
      + 1000 X_01,05_02 + 1000 X_01,05_03 + 1000 X_01,05_04 + X_02,01_01
      + X_02,01_02 + X_02,01_03 + X_02,01_04 + 1000 X_02,02_01
      + 1000 X_02,02_02 + 1000 X_02,02_03 + 1000 X_02,02_04 + 2 X_02,03_01
      + 2 X_02,03_02 + 2 X_02,03_03 + 2 X_02,03_04 + 4 X_02,04_01
      + 4 X_02,04_02 + 4 X_02,04_03 + 4 X_02,04_04 + 1000 X_02,05_01
      + 1000 X_02,05_02 + 1000 X_02,05_03 + 1000 X_02,05_04 + X_03,01_01
      + X_03,01_02 + X_03,01_03 + X_03,01_04 + 2 X_03,02_01 + 2 X_03,02_02
      + 2 X_03,02_03 + 2 X_03,02_04 + 1000 X_03,03_01 + 1000 X_03,03_02
      + 1000 X_03,03_03 + 1000 X_03,03_04 + 8 X_03,04_01 + 8 X_03,04_02
      + 8 X_03,04_03 + 8 X_03,04_04 + 5 X_03,05_01 + 5 X_03,05_02
      + 5 X_03,05_03 + 5 X_03,05_04 + 1000 X_04,01_01 + 1000 X_04,01_02
      + 1000 X_04,01_03 + 1000 X_04,01_04 + 4 X_04,02_01 + 4 X_04,02_02
      + 4 X_04,02_03 + 4 X_04,02_04 + 8 X_04,03_01 + 8 X_04,03_02
      + 8 X_04,03_03 + 8 X_04,03_04 + 1000 X_04,04_01 + 1000 X_04,04_02
      + 1000 X_04,04_03 + 1000 X_04,04_04 + 3 X_04,05_01 + 3 X_04,05_02
      + 3 X_04,05_03 + 3 X_04,05_04 + 1000 X_05,01_01 + 1000 X_05,01_02
      + 1000 X_05,01_03 + 1000 X_05,01_04 + 1000 X_05,02_01 + 1000 X_05,02_02
      + 1000 X_05,02_03 + 1000 X_05,02_04 + 5 X_05,03_01 + 5 X_05,03_02
      + 5 X_05,03_03 + 5 X_05,03_04 + 3 X_05,04_01 + 3 X_05,04_02
      + 3 X_05,04_03 + 3 X_05,04_04 + 1000 X_05,05_01 + 1000 X_05,05_02
      + 1000 X_05,05_03 + 1000 X_05,05_04
Subject To
 Quantity_Constraint_1_1: - X_01,01_01 + X_01,02_01 + X_01,03_01 + X_01,04_01
                          + X_01,05_01 - X_02,01_01 - X_03,01_01 - X_04,01_01
                          - X_05,01_01  = 15
 Quantity_Constraint_1_2: - X_01,01_02 + X_01,02_02 + X_01,03_02 + X_01,04_02
                          + X_01,05_02 - X_02,01_02 - X_03,01_02 - X_04,01_02
                          - X_05,01_02  = 5
 Quantity_Constraint_1_3: - X_01,01_03 + X_01,02_03 + X_01,03_03 + X_01,04_03
                          + X_01,05_03 - X_02,01_03 - X_03,01_03 - X_04,01_03
                          - X_05,01_03  = 0
 Quantity_Constraint_1_4: - X_01,01_04 + X_01,02_04 + X_01,03_04 + X_01,04_04
                          + X_01,05_04 - X_02,01_04 - X_03,01_04 - X_04,01_04
                          - X_05,01_04  = 0
 Quantity_Constraint_2_1: - X_01,02_01 + X_02,01_01 - X_02,02_01 + X_02,03_01
                          + X_02,04_01 + X_02,05_01 - X_03,02_01 - X_04,02_01
                          - X_05,02_01  = 0
 Quantity_Constraint_2_2: - X_01,02_02 + X_02,01_02 - X_02,02_02 + X_02,03_02
                          + X_02,04_02 + X_02,05_02 - X_03,02_02 - X_04,02_02
                          - X_05,02_02  = 0
 Quantity_Constraint_2_3: - X_01,02_03 + X_02,01_03 - X_02,02_03 + X_02,03_03
                          + X_02,04_03 + X_02,05_03 - X_03,02_03 - X_04,02_03
                          - X_05,02_03  = 10
 Quantity_Constraint_2_4: - X_01,02_04 + X_02,01_04 - X_02,02_04 + X_02,03_04
                          + X_02,04_04 + X_02,05_04 - X_03,02_04 - X_04,02_04
                          - X_05,02_04  = 0
 Quantity_Constraint_3_1: - X_01,03_01 - X_02,03_01 + X_03,01_01 + X_03,02_01
                          - X_03,03_01 + X_03,04_01 + X_03,05_01 - X_04,03_01
                          - X_05,03_01  = 0
 Quantity_Constraint_3_2: - X_01,03_02 - X_02,03_02 + X_03,01_02 + X_03,02_02
                          - X_03,03_02 + X_03,04_02 + X_03,05_02 - X_04,03_02
                          - X_05,03_02  = 0
 Quantity_Constraint_3_3: - X_01,03_03 - X_02,03_03 + X_03,01_03 + X_03,02_03
                          - X_03,03_03 + X_03,04_03 + X_03,05_03 - X_04,03_03
                          - X_05,03_03  = 0
 Quantity_Constraint_3_4: - X_01,03_04 - X_02,03_04 + X_03,01_04 + X_03,02_04
                          - X_03,03_04 + X_03,04_04 + X_03,05_04 - X_04,03_04
                          - X_05,03_04  = 5
 Quantity_Constraint_4_1: - X_01,04_01 - X_02,04_01 - X_03,04_01 + X_04,01_01
                          + X_04,02_01 + X_04,03_01 - X_04,04_01 + X_04,05_01
                          - X_05,04_01  = -15
 Quantity_Constraint_4_2: - X_01,04_02 - X_02,04_02 - X_03,04_02 + X_04,01_02
                          + X_04,02_02 + X_04,03_02 - X_04,04_02 + X_04,05_02
                          - X_05,04_02  = 0
 Quantity_Constraint_4_3: - X_01,04_03 - X_02,04_03 - X_03,04_03 + X_04,01_03
                          + X_04,02_03 + X_04,03_03 - X_04,04_03 + X_04,05_03
                          - X_05,04_03  = 0
 Quantity_Constraint_4_4: - X_01,04_04 - X_02,04_04 - X_03,04_04 + X_04,01_04
                          + X_04,02_04 + X_04,03_04 - X_04,04_04 + X_04,05_04
                          - X_05,04_04  = 0
 Quantity_Constraint_5_1: - X_01,05_01 - X_02,05_01 - X_03,05_01 - X_04,05_01
                          + X_05,01_01 + X_05,02_01 + X_05,03_01 + X_05,04_01
                          - X_05,05_01  = 0
 Quantity_Constraint_5_2: - X_01,05_02 - X_02,05_02 - X_03,05_02 - X_04,05_02
                          + X_05,01_02 + X_05,02_02 + X_05,03_02 + X_05,04_02
                          - X_05,05_02  = -5
 Quantity_Constraint_5_3: - X_01,05_03 - X_02,05_03 - X_03,05_03 - X_04,05_03
                          + X_05,01_03 + X_05,02_03 + X_05,03_03 + X_05,04_03
                          - X_05,05_03  = -10
 Quantity_Constraint_5_4: - X_01,05_04 - X_02,05_04 - X_03,05_04 - X_04,05_04
                          + X_05,01_04 + X_05,02_04 + X_05,03_04 + X_05,04_04
                          - X_05,05_04  = -5
 Capacity_Constraint_1_1: X_01,01_01 + X_01,01_02 + X_01,01_03 + X_01,01_04
                           = 0
 Capacity_Constraint_1_2: X_01,02_01 + X_01,02_02 + X_01,02_03 + X_01,02_04
                          - RgCapacity_Constraint_1_2  = 0
 Capacity_Constraint_1_3: X_01,03_01 + X_01,03_02 + X_01,03_03 + X_01,03_04
                          - RgCapacity_Constraint_1_3  = 0
 Capacity_Constraint_1_4: X_01,04_01 + X_01,04_02 + X_01,04_03 + X_01,04_04
                           = 0
 Capacity_Constraint_1_5: X_01,05_01 + X_01,05_02 + X_01,05_03 + X_01,05_04
                           = 0
 Capacity_Constraint_2_1: X_02,01_01 + X_02,01_02 + X_02,01_03 + X_02,01_04
                          - RgCapacity_Constraint_2_1  = 0
 Capacity_Constraint_2_2: X_02,02_01 + X_02,02_02 + X_02,02_03 + X_02,02_04
                           = 0
 Capacity_Constraint_2_3: X_02,03_01 + X_02,03_02 + X_02,03_03 + X_02,03_04
                          - RgCapacity_Constraint_2_3  = 0
 Capacity_Constraint_2_4: X_02,04_01 + X_02,04_02 + X_02,04_03 + X_02,04_04
                          - RgCapacity_Constraint_2_4  = 0
 Capacity_Constraint_2_5: X_02,05_01 + X_02,05_02 + X_02,05_03 + X_02,05_04
                           = 0
 Capacity_Constraint_3_1: X_03,01_01 + X_03,01_02 + X_03,01_03 + X_03,01_04
                          - RgCapacity_Constraint_3_1  = 0
 Capacity_Constraint_3_2: X_03,02_01 + X_03,02_02 + X_03,02_03 + X_03,02_04
                          - RgCapacity_Constraint_3_2  = 0
 Capacity_Constraint_3_3: X_03,03_01 + X_03,03_02 + X_03,03_03 + X_03,03_04
                           = 0
 Capacity_Constraint_3_4: X_03,04_01 + X_03,04_02 + X_03,04_03 + X_03,04_04
                          - RgCapacity_Constraint_3_4  = 0
 Capacity_Constraint_3_5: X_03,05_01 + X_03,05_02 + X_03,05_03 + X_03,05_04
                          - RgCapacity_Constraint_3_5  = 0
 Capacity_Constraint_4_1: X_04,01_01 + X_04,01_02 + X_04,01_03 + X_04,01_04
                           = 0
 Capacity_Constraint_4_2: X_04,02_01 + X_04,02_02 + X_04,02_03 + X_04,02_04
                          - RgCapacity_Constraint_4_2  = 0
 Capacity_Constraint_4_3: X_04,03_01 + X_04,03_02 + X_04,03_03 + X_04,03_04
                          - RgCapacity_Constraint_4_3  = 0
 Capacity_Constraint_4_4: X_04,04_01 + X_04,04_02 + X_04,04_03 + X_04,04_04
                           = 0
 Capacity_Constraint_4_5: X_04,05_01 + X_04,05_02 + X_04,05_03 + X_04,05_04
                          - RgCapacity_Constraint_4_5  = 0
 Capacity_Constraint_5_1: X_05,01_01 + X_05,01_02 + X_05,01_03 + X_05,01_04
                           = 0
 Capacity_Constraint_5_2: X_05,02_01 + X_05,02_02 + X_05,02_03 + X_05,02_04
                           = 0
 Capacity_Constraint_5_3: X_05,03_01 + X_05,03_02 + X_05,03_03 + X_05,03_04
                          - RgCapacity_Constraint_5_3  = 0
 Capacity_Constraint_5_4: X_05,04_01 + X_05,04_02 + X_05,04_03 + X_05,04_04
                          - RgCapacity_Constraint_5_4  = 0
 Capacity_Constraint_5_5: X_05,05_01 + X_05,05_02 + X_05,05_03 + X_05,05_04
                           = 0
Bounds
      X_01,01_01 >= 0
      X_01,01_02 >= 0
      X_01,01_03 >= 0
      X_01,01_04 >= 0
      X_01,02_01 >= 0
      X_01,02_02 >= 0
      X_01,02_03 >= 0
      X_01,02_04 >= 0
      X_01,03_01 >= 0
      X_01,03_02 >= 0
      X_01,03_03 >= 0
      X_01,03_04 >= 0
      X_01,04_01 >= 0
      X_01,04_02 >= 0
      X_01,04_03 >= 0
      X_01,04_04 >= 0
      X_01,05_01 >= 0
      X_01,05_02 >= 0
      X_01,05_03 >= 0
      X_01,05_04 >= 0
      X_02,01_01 >= 0
      X_02,01_02 >= 0
      X_02,01_03 >= 0
      X_02,01_04 >= 0
      X_02,02_01 >= 0
      X_02,02_02 >= 0
      X_02,02_03 >= 0
      X_02,02_04 >= 0
      X_02,03_01 >= 0
      X_02,03_02 >= 0
      X_02,03_03 >= 0
      X_02,03_04 >= 0
      X_02,04_01 >= 0
      X_02,04_02 >= 0
      X_02,04_03 >= 0
      X_02,04_04 >= 0
      X_02,05_01 >= 0
      X_02,05_02 >= 0
      X_02,05_03 >= 0
      X_02,05_04 >= 0
      X_03,01_01 >= 0
      X_03,01_02 >= 0
      X_03,01_03 >= 0
      X_03,01_04 >= 0
      X_03,02_01 >= 0
      X_03,02_02 >= 0
      X_03,02_03 >= 0
      X_03,02_04 >= 0
      X_03,03_01 >= 0
      X_03,03_02 >= 0
      X_03,03_03 >= 0
      X_03,03_04 >= 0
      X_03,04_01 >= 0
      X_03,04_02 >= 0
      X_03,04_03 >= 0
      X_03,04_04 >= 0
      X_03,05_01 >= 0
      X_03,05_02 >= 0
      X_03,05_03 >= 0
      X_03,05_04 >= 0
      X_04,01_01 >= 0
      X_04,01_02 >= 0
      X_04,01_03 >= 0
      X_04,01_04 >= 0
      X_04,02_01 >= 0
      X_04,02_02 >= 0
      X_04,02_03 >= 0
      X_04,02_04 >= 0
      X_04,03_01 >= 0
      X_04,03_02 >= 0
      X_04,03_03 >= 0
      X_04,03_04 >= 0
      X_04,04_01 >= 0
      X_04,04_02 >= 0
      X_04,04_03 >= 0
      X_04,04_04 >= 0
      X_04,05_01 >= 0
      X_04,05_02 >= 0
      X_04,05_03 >= 0
      X_04,05_04 >= 0
      X_05,01_01 >= 0
      X_05,01_02 >= 0
      X_05,01_03 >= 0
      X_05,01_04 >= 0
      X_05,02_01 >= 0
      X_05,02_02 >= 0
      X_05,02_03 >= 0
      X_05,02_04 >= 0
      X_05,03_01 >= 0
      X_05,03_02 >= 0
      X_05,03_03 >= 0
      X_05,03_04 >= 0
      X_05,04_01 >= 0
      X_05,04_02 >= 0
      X_05,04_03 >= 0
      X_05,04_04 >= 0
      X_05,05_01 >= 0
      X_05,05_02 >= 0
      X_05,05_03 >= 0
      X_05,05_04 >= 0
 0 <= RgCapacity_Constraint_1_2 <= 20
 0 <= RgCapacity_Constraint_1_3 <= 10
 0 <= RgCapacity_Constraint_2_1 <= 20
 0 <= RgCapacity_Constraint_2_3 <= 10
 0 <= RgCapacity_Constraint_2_4 <= 20
 0 <= RgCapacity_Constraint_3_1 <= 10
 0 <= RgCapacity_Constraint_3_2 <= 10
 0 <= RgCapacity_Constraint_3_4 <= 40
 0 <= RgCapacity_Constraint_3_5 <= 10
 0 <= RgCapacity_Constraint_4_2 <= 20
 0 <= RgCapacity_Constraint_4_3 <= 40
 0 <= RgCapacity_Constraint_4_5 <= 30
 0 <= RgCapacity_Constraint_5_3 <= 10
 0 <= RgCapacity_Constraint_5_4 <= 30
Generals
 X_01,01_01  X_01,01_02  X_01,01_03  X_01,01_04  X_01,02_01  X_01,02_02 
 X_01,02_03  X_01,02_04  X_01,03_01  X_01,03_02  X_01,03_03  X_01,03_04 
 X_01,04_01  X_01,04_02  X_01,04_03  X_01,04_04  X_01,05_01  X_01,05_02 
 X_01,05_03  X_01,05_04  X_02,01_01  X_02,01_02  X_02,01_03  X_02,01_04 
 X_02,02_01  X_02,02_02  X_02,02_03  X_02,02_04  X_02,03_01  X_02,03_02 
 X_02,03_03  X_02,03_04  X_02,04_01  X_02,04_02  X_02,04_03  X_02,04_04 
 X_02,05_01  X_02,05_02  X_02,05_03  X_02,05_04  X_03,01_01  X_03,01_02 
 X_03,01_03  X_03,01_04  X_03,02_01  X_03,02_02  X_03,02_03  X_03,02_04 
 X_03,03_01  X_03,03_02  X_03,03_03  X_03,03_04  X_03,04_01  X_03,04_02 
 X_03,04_03  X_03,04_04  X_03,05_01  X_03,05_02  X_03,05_03  X_03,05_04 
 X_04,01_01  X_04,01_02  X_04,01_03  X_04,01_04  X_04,02_01  X_04,02_02 
 X_04,02_03  X_04,02_04  X_04,03_01  X_04,03_02  X_04,03_03  X_04,03_04 
 X_04,04_01  X_04,04_02  X_04,04_03  X_04,04_04  X_04,05_01  X_04,05_02 
 X_04,05_03  X_04,05_04  X_05,01_01  X_05,01_02  X_05,01_03  X_05,01_04 
 X_05,02_01  X_05,02_02  X_05,02_03  X_05,02_04  X_05,03_01  X_05,03_02 
 X_05,03_03  X_05,03_04  X_05,04_01  X_05,04_02  X_05,04_03  X_05,04_04 
 X_05,05_01  X_05,05_02  X_05,05_03  X_05,05_04 
End
